SAT
-64 -47 50 -44 1 -23 -93 28 38 -76 -62 -95 13 -21 -65 74 -56 52 79 36 -88 -37 32 -6 7 5 84 30 -45 -20 -82 -51 78 -77 97 81 -17 -91 -87 -71 61 -2 31 -63 -24 8 46 75 -67 -69 15 -100 49 34 -89 26 98 55 12 70 39 25 73 -92 99 -19 60 90 57 -48 35 -14 -3 -18 -42 66 -33 -40 -27 53 -83 59 -86 -10 80 -68 -43 4 -94 85 -72 -11 22 96 58 -29 -41 9 -54 16 0
